========================================================== 
File name: C:\DEGR\assets\definitions\MSRCPSP_Gen\200_20_64_10_C.def
Creation date: Wed May 03 10:47:26 CEST 2023
Website: http://imopse.ii.pwr.edu.pl/ 
Reference: 
Myszkowski P. B., Skowronski M. E., Olech L., Oslizlo K., 
Hybrid Ant Colony Optimization in solving Multi-Skill Resource-Constrained Project Scheduling Problem, 
Soft Computing, DOI: DOI 10.1007/s00500-014-1455-x 
========================================================== 
General characteristics: 
Tasks: 200
Resources: 20
Precedence relations: 64
Number of skill types: 10
========================================================== 
ResourceID 	 Salary 	 Skills 
1	 	 	22.7	 	 Q2: 2 	  Q0: 0 	 
2	 	 	25.6	 	 Q8: 0 	  Q4: 2 	  Q6: 3 	  Q0: 3 	  Q7: 0 	 
3	 	 	99.8	 	 Q1: 2 	  Q4: 0 	  Q7: 3 	 
4	 	 	98.5	 	 Q5: 3 	  Q7: 0 	 
5	 	 	47.0	 	 Q7: 2 	  Q0: 1 	  Q9: 2 	  Q8: 0 	  Q6: 1 	  Q4: 2 	  Q3: 2 	 
6	 	 	95.3	 	 Q4: 0 	  Q2: 1 	  Q5: 3 	  Q7: 0 	 
7	 	 	37.0	 	 Q7: 3 	  Q8: 2 	 
8	 	 	89.1	 	 Q1: 3 	  Q6: 2 	  Q3: 3 	  Q4: 3 	  Q7: 1 	 
9	 	 	41.8	 	 Q1: 1 	  Q5: 0 	 
10	 	 	57.7	 	 Q3: 0 	  Q4: 3 	 
11	 	 	29.1	 	 Q0: 1 	  Q3: 3 	  Q9: 1 	  Q5: 1 	  Q1: 1 	  Q8: 1 	  Q2: 2 	  Q6: 0 	  Q4: 0 	 
12	 	 	74.2	 	 Q8: 2 	  Q3: 1 	 
13	 	 	49.2	 	 Q1: 1 	  Q9: 2 	  Q8: 1 	  Q4: 1 	  Q5: 2 	  Q0: 2 	  Q2: 3 	  Q7: 3 	  Q6: 1 	 
14	 	 	20.8	 	 Q3: 2 	  Q8: 1 	  Q1: 1 	  Q6: 0 	  Q2: 1 	  Q7: 1 	 
15	 	 	80.3	 	 Q7: 2 	  Q3: 2 	  Q4: 1 	  Q2: 3 	  Q8: 2 	 
16	 	 	44.9	 	 Q8: 1 	  Q3: 1 	  Q4: 0 	  Q2: 2 	  Q1: 1 	  Q6: 0 	  Q5: 2 	 
17	 	 	35.2	 	 Q6: 0 	  Q8: 3 	  Q5: 1 	  Q4: 0 	  Q2: 0 	  Q0: 3 	 
18	 	 	68.2	 	 Q7: 2 	  Q8: 3 	  Q6: 0 	  Q5: 0 	  Q9: 3 	  Q3: 2 	  Q1: 2 	 
19	 	 	60.5	 	 Q8: 1 	  Q7: 2 	  Q1: 2 	  Q4: 1 	  Q3: 2 	  Q5: 0 	  Q2: 2 	  Q0: 2 	  Q9: 1 	 
20	 	 	82.9	 	 Q4: 2 	  Q9: 0 	  Q5: 0 	  Q7: 2 	  Q1: 0 	  Q0: 2 	  Q2: 2 	 
========================================================== 
TaskID 	 Duration 	 Skill 	 Predecessor IDs 
1	33	Q3:	3
2	23	Q5:	1
3	22	Q0:	1
4	38	Q5:	0
5	15	Q2:	2
6	24	Q6:	2
7	25	Q6:	2	3
8	35	Q3:	3
9	37	Q5:	2
10	13	Q8:	3
11	24	Q5:	3
12	17	Q4:	2
13	32	Q0:	3
14	20	Q4:	3
15	21	Q3:	0
16	20	Q2:	1
17	12	Q9:	3
18	31	Q7:	3
19	38	Q9:	2
20	11	Q8:	1
21	25	Q1:	3
22	29	Q0:	3
23	37	Q0:	3
24	23	Q3:	0
25	26	Q9:	3
26	21	Q5:	3
27	9	Q4:	2
28	37	Q7:	1	26
29	15	Q7:	2	18
30	39	Q6:	1
31	23	Q4:	2
32	15	Q0:	3
33	35	Q9:	2
34	9	Q9:	2
35	37	Q3:	2
36	12	Q8:	2
37	12	Q3:	3
38	17	Q5:	0	28
39	24	Q1:	2
40	22	Q0:	2
41	13	Q6:	1
42	19	Q5:	0
43	11	Q0:	0
44	10	Q6:	0
45	22	Q0:	2
46	29	Q1:	0
47	27	Q5:	0
48	29	Q7:	3	40
49	28	Q8:	3
50	25	Q5:	0	8
51	28	Q4:	2	38
52	39	Q3:	1
53	26	Q4:	3
54	15	Q5:	2
55	24	Q2:	2
56	8	Q5:	0
57	11	Q4:	1
58	10	Q3:	3
59	37	Q7:	2
60	37	Q2:	3
61	21	Q4:	3	33
62	32	Q2:	0
63	19	Q8:	3
64	21	Q0:	2
65	11	Q5:	1
66	21	Q9:	2
67	30	Q4:	2	31
68	24	Q0:	0
69	27	Q9:	3	6
70	39	Q9:	2
71	22	Q1:	3
72	22	Q1:	2	29
73	14	Q0:	1
74	29	Q6:	1
75	12	Q8:	0	40
76	24	Q1:	2
77	14	Q4:	3
78	34	Q5:	0	9
79	14	Q1:	1	42	35
80	14	Q4:	1	44	33
81	12	Q0:	0
82	38	Q0:	3
83	33	Q1:	0
84	35	Q3:	0
85	16	Q3:	0
86	15	Q8:	1
87	25	Q2:	0
88	16	Q0:	3
89	29	Q1:	2
90	19	Q3:	0	85
91	10	Q7:	2
92	26	Q0:	1
93	11	Q1:	2
94	36	Q2:	1	77
95	34	Q1:	0
96	11	Q3:	2
97	31	Q4:	0
98	11	Q8:	3	27
99	11	Q0:	3
100	31	Q1:	2
101	22	Q3:	3
102	19	Q1:	3	81
103	18	Q3:	3
104	31	Q1:	2
105	24	Q8:	3	62
106	27	Q8:	0	17
107	25	Q3:	3
108	26	Q2:	2
109	29	Q8:	2
110	22	Q0:	0
111	38	Q0:	3
112	27	Q9:	3
113	21	Q0:	0
114	35	Q3:	3
115	25	Q5:	3	90
116	36	Q5:	0
117	35	Q7:	0
118	20	Q6:	1
119	16	Q9:	1	87	108
120	40	Q7:	0	106
121	11	Q5:	0
122	26	Q6:	1
123	40	Q0:	2
124	35	Q3:	1	72
125	15	Q6:	3
126	30	Q8:	0
127	21	Q7:	0	41	23
128	40	Q7:	0
129	13	Q0:	2
130	22	Q7:	3
131	26	Q3:	1
132	39	Q7:	0
133	20	Q7:	3
134	28	Q2:	1	21
135	23	Q5:	1
136	18	Q7:	0
137	39	Q8:	0
138	10	Q7:	0	25
139	17	Q1:	0	72
140	10	Q7:	1
141	16	Q8:	3
142	17	Q6:	0
143	35	Q8:	2
144	29	Q9:	1
145	34	Q5:	3	31
146	16	Q3:	3
147	35	Q2:	2	48
148	12	Q2:	0
149	35	Q6:	3
150	40	Q4:	2	31	11	113
151	27	Q5:	1
152	24	Q8:	1
153	14	Q5:	1
154	39	Q5:	0	43
155	30	Q7:	0	19	111
156	29	Q3:	3
157	11	Q2:	2
158	9	Q9:	3	136
159	12	Q8:	1
160	27	Q1:	2
161	16	Q1:	1
162	20	Q8:	2
163	24	Q9:	2	41
164	35	Q9:	2
165	14	Q3:	2
166	34	Q7:	3
167	30	Q6:	2	91
168	37	Q2:	1
169	28	Q6:	1
170	18	Q4:	1
171	30	Q8:	2
172	32	Q8:	3
173	32	Q2:	3
174	31	Q3:	3	90
175	38	Q6:	3
176	30	Q0:	2	167	166	130
177	31	Q6:	0
178	15	Q1:	0	70
179	17	Q9:	0	124
180	40	Q1:	3
181	13	Q6:	2
182	21	Q7:	2
183	19	Q1:	0
184	28	Q0:	1	36
185	34	Q5:	3
186	27	Q8:	0	4
187	39	Q8:	1	48
188	9	Q1:	1
189	9	Q6:	3
190	25	Q1:	1	83	74	90
191	9	Q0:	1	106
192	25	Q1:	2	149
193	11	Q4:	1	112
194	21	Q8:	2
195	17	Q4:	3
196	38	Q9:	0	157
197	11	Q7:	0
198	13	Q2:	2	179
199	30	Q1:	3	37
200	39	Q5:	2	115	170
========================================================== 